c 11 Comfort Software
c 9 Basic Car
c 18 Huge Display
c 14 Speed and Distance Control
c 5 UMTS
c 3 Small Display
c 17 Heating Control
c 10 Rainsensor
c 8 Light Control
c 2 Communication Software
c 19 False
c 13 Motor Control
c 16 Windowlifter
c 1 Weather Info
c 15 GSM
c 7 Radio
c 4 Infotainment Software
c 12 Car Software
c 6 Mobile Communication
p cnf 19 XXXXXX
-1 2 0
-3 4 0
-5 6 0
-7 4 0
-5 6 0
-8 9 0
-10 11 0
-9 12 0
-6 2 0
-13 9 0
-1 2 0
-14 9 0
-15 6 0
-10 11 0
-11 12 0
-2 12 0
-3 4 0
-8 9 0
-1 2 0
-15 6 0
-6 2 0
-16 11 0
-5 6 0
-11 12 0
-5 6 0
-7 4 0
-4 12 0
-5 6 0
-15 6 0
-6 2 0
-16 11 0
-15 6 0
-6 2 0
-5 6 0
-17 9 0
-1 2 0
-8 9 0
-16 11 0
-17 9 0
-8 9 0
-15 6 0
-18 4 0
-3 4 0
-5 6 0
-7 4 0
-7 4 0
-14 9 0
-3 4 0
-10 11 0
-13 9 0
-14 9 0
-9 12 0
-18 4 0
-4 12 0
-13 9 0
-16 11 0
-17 9 0
-17 9 0
-14 9 0
-15 6 0
-10 11 0
-15 6 0
-5 6 0
-18 4 0
-18 4 0
-13 9 0
-15 6 0
-2 12 0
12 0
-2 6 0
-11 16 0
-4 7 0
-12 9 0
-9 17 0
19 12 0
-9 8 0
-9 13 0
-6 15 5 0
-12 11 4 2 0
-4 18 3 0
-18 -3 0
-6 1 0